<number of tasks>
50

<cycle time>
1000

<order strength>
0.198


<task times>
1 162
2 495
3 115
4 217
5 147
6 153
7 160
8 469
9 38
10 355
11 34
12 32
13 31
14 32
15 495
16 47
17 170
18 37
19 117
20 98
21 148
22 166
23 371
24 490
25 346
26 40
27 314
28 611
29 158
30 59
31 423
32 66
33 65
34 301
35 74
36 139
37 34
38 491
39 156
40 473
41 199
42 155
43 240
44 95
45 270
46 479
47 252
48 131
49 88
50 162

<precedence relations>
1,18
2,18
3,12
4,14
5,11
5,13
5,15
6,17
7,9
8,10
8,16
9,18
10,18
11,19
12,21
13,20
14,22
15,24
17,23
18,25
18,26
18,27
18,28
18,30
18,31
19,29
20,29
23,32
26,36
28,33
29,35
30,37
31,34
34,38
35,40
37,39
37,41
38,42
38,45
39,46
41,43
41,44
42,47
43,48
44,49
46,50

<end>
